105427
26,6,16,55,50,71,80,46,48,33,59,42,56,2,11,22,54,41,24,68,14,1,29,34,37,15,74,81,43,21,67,58,52,82,7,27,78,5,60,77,40,51,38,62,3,49,64,30,23,47,18,4,20,53,17,36,12,0,9,28,63,72,44,45,79,61,69,13,66,75,25,35,65,70,19,8,76,57,73,31,39,10,32
